;--------------------------------------------------------------------------
; Benchmark created with Zazu
; Benchmark: 		freire1_norm_inv1_2xlen3
; Created:   		2022-01-11 18:12
; Generator of the ideal: 
; 		 -r + r00 + r^2 + 2*x - 2*x00 - r00^2
; Testing invariant: -2*x^3*x00 + 4*r^3*x^3*x00 + r^2*r00*x^3 + r*r00*x - r^4*x + 2*r^2*x^4 - r^2*r00^2*x^3 - r^2*x - r*r00*x^3 + 2*r^4*x^4 + 2*r^2*x^3 - 2*r^4*x^2 + r^4*r00^2*x + 3*r^4*x^3 + 2*r^4*x*x00 - 2*r*x*x00 + r^6*x^3 + 2*x^4 + r^4*r00*x^3 - r00^2*x^3 - r^4*r00^2*x^3 - r^6*x + 2*r^3*r00^2*x^3 + r00*x^3 + r*r00^2*x^3 + r^3*x - 2*r^4*x^3*x00 - 2*r^3*x^3 - 2*r^3*r00*x^3 - 4*r^3*x^4 - 2*r*x^4 - 3*r^5*x^3 + 2*r^3*x^2 + 2*r*x^3*x00 - r*x^3 - r*r00^2*x + 2*r*x^2 - r^3*r00^2*x - r^4*r00*x - 2*r^3*x*x00 + 2*r^5*x - 2*r^2*x^3*x00 + r^3*r00*x
;--------------------------------------------------------------------------

(set-logic NIA)
(set-option :produce-proofs true)

(declare-const r00 Int)
(declare-const x00 Int)

(assert 
	(exists
		((r Int) (x Int))
		(and
			(= (- (+ (* (- 1) r) r00 (* r r) (* 2 x)) (* 2 x00) (* r00 r00)) 0)

			(or
				(not (= (+ (- (+ (- (+ (- (+ (- (+ (- (+ (- (+ (- (+ (- (+ (- (+ (* (- 2) (- x r) (- x r) (- x r) x00) (* 4 (+ r 1) (+ r 1) (+ r 1) (- x r) (- x r) (- x r) x00) (* (+ r 1) (+ r 1) r00 (- x r) (- x r) (- x r)) (* (+ r 1) r00 (- x r))) (* (+ r 1) (+ r 1) (+ r 1) (+ r 1) (- x r))) (* 2 (+ r 1) (+ r 1) (- x r) (- x r) (- x r) (- x r))) (* (+ r 1) (+ r 1) r00 r00 (- x r) (- x r) (- x r)) (* (+ r 1) (+ r 1) (- x r)) (* (+ r 1) r00 (- x r) (- x r) (- x r))) (* 2 (+ r 1) (+ r 1) (+ r 1) (+ r 1) (- x r) (- x r) (- x r) (- x r)) (* 2 (+ r 1) (+ r 1) (- x r) (- x r) (- x r))) (* 2 (+ r 1) (+ r 1) (+ r 1) (+ r 1) (- x r) (- x r))) (* (+ r 1) (+ r 1) (+ r 1) (+ r 1) r00 r00 (- x r)) (* 3 (+ r 1) (+ r 1) (+ r 1) (+ r 1) (- x r) (- x r) (- x r)) (* 2 (+ r 1) (+ r 1) (+ r 1) (+ r 1) (- x r) x00)) (* 2 (+ r 1) (- x r) x00)) (* (+ r 1) (+ r 1) (+ r 1) (+ r 1) (+ r 1) (+ r 1) (- x r) (- x r) (- x r)) (* 2 (- x r) (- x r) (- x r) (- x r)) (* (+ r 1) (+ r 1) (+ r 1) (+ r 1) r00 (- x r) (- x r) (- x r))) (* r00 r00 (- x r) (- x r) (- x r)) (* (+ r 1) (+ r 1) (+ r 1) (+ r 1) r00 r00 (- x r) (- x r) (- x r)) (* (+ r 1) (+ r 1) (+ r 1) (+ r 1) (+ r 1) (+ r 1) (- x r))) (* 2 (+ r 1) (+ r 1) (+ r 1) r00 r00 (- x r) (- x r) (- x r)) (* r00 (- x r) (- x r) (- x r)) (* (+ r 1) r00 r00 (- x r) (- x r) (- x r)) (* (+ r 1) (+ r 1) (+ r 1) (- x r))) (* 2 (+ r 1) (+ r 1) (+ r 1) (+ r 1) (- x r) (- x r) (- x r) x00) (* 2 (+ r 1) (+ r 1) (+ r 1) (- x r) (- x r) (- x r)) (* 2 (+ r 1) (+ r 1) (+ r 1) r00 (- x r) (- x r) (- x r)) (* 4 (+ r 1) (+ r 1) (+ r 1) (- x r) (- x r) (- x r) (- x r)) (* 2 (+ r 1) (- x r) (- x r) (- x r) (- x r)) (* 3 (+ r 1) (+ r 1) (+ r 1) (+ r 1) (+ r 1) (- x r) (- x r) (- x r))) (* 2 (+ r 1) (+ r 1) (+ r 1) (- x r) (- x r)) (* 2 (+ r 1) (- x r) (- x r) (- x r) x00)) (* (+ r 1) (- x r) (- x r) (- x r)) (* (+ r 1) r00 r00 (- x r))) (* 2 (+ r 1) (- x r) (- x r))) (* (+ r 1) (+ r 1) (+ r 1) r00 r00 (- x r)) (* (+ r 1) (+ r 1) (+ r 1) (+ r 1) r00 (- x r)) (* 2 (+ r 1) (+ r 1) (+ r 1) (- x r) x00)) (* 2 (+ r 1) (+ r 1) (+ r 1) (+ r 1) (+ r 1) (- x r))) (* 2 (+ r 1) (+ r 1) (- x r) (- x r) (- x r) x00)) (* (+ r 1) (+ r 1) (+ r 1) r00 (- x r))) 0))
			)
		)
	)
)
(check-sat)
(get-proof)
(exit)
